
 102   30
  10   10   10   10   10   10   10   10   10   10   10   10   10   10   10   10   10   10   10   10   10   10   10   10   10   10   10   10   10   10

   0   0   0   0   0   0   0   0   0   0   0   0   0   0   0   0   0   0   0   0   0   0   0   0   0   0   0   0   0   0   0  29 2 3 4 5 6 7 8 9 10 11 12 13 14 15 16 18 21 23 25 26 27 29 30 31 32 35 36 43 45 
   4   0   0   0   0   0   0   0   1   2   0   0   0   0   0   0   0   0   0   0   0   0   0   0   0   0   0   0   0   0   0  12 100 76 75 62 59 53 51 49 47 22 20 19 
   7   1   0   0   0   0   0   0   0   0   0   0   1   0   0   0   0   0   0   0   0   0   0   0   0   0   0   5   0   2   0  15 100 98 76 75 59 57 53 52 51 46 42 39 38 24 19 
   7   0   0   0   0   0   0   0   0   5   0   0   0   0   0   0   0   0   0   0   0   0   0   0   0   0   0   0   0   0   0  10 98 76 64 63 54 51 42 37 34 19 
   6   0   0   0   0   0   0   0   0   0   0   0   0   0   0   0   0   0   0   0   0   0   0   0   0   0   0   0   0   4   0  18 101 99 96 76 73 67 64 59 58 55 53 52 51 49 44 41 40 39 
   7   0   0   0   1   1   0   0   0   0   0   0   0   0   0   2   0   0   0   0   0   0   4   0   0   0   0   0   0   0   0  11 100 99 63 62 60 58 56 52 51 38 17 
   8   0   0   0   0   0   0   1   0   0   1   0   0   0   0   0   0   0   0   1   0   0   0   4   0   0   1   0   0   0   5  15 100 75 74 72 65 62 61 60 53 52 51 50 47 46 22 
   6   0   0   0   0   0   0   0   0   0   0   1   0   0   0   0   0   0   0   0   0   1   4   0   0   0   0   0   0   0   0  12 101 98 96 92 71 63 57 53 52 51 48 19 
   9   3   0   0   5   0   0   0   0   0   7   0   0   3   0   0   0   0   0   0   0   0   0   0   0   0   0   0   0   0   0  17 101 99 95 75 73 69 67 66 64 63 62 60 58 55 49 41 40 
   1   0   0   0   4   0   0   5   0   0   0   0   0   0   0   0   0   0   0   0   0   0   0   0   0   0   0   0   0   8   0  13 100 99 95 94 89 73 72 71 62 61 57 41 28 
   9   0   0   0   0   0   0   0   0  10   0   0   0   0   0   0   0   0   0   0   0   0   0   0   0   0   0   5   0   0   0  25 101 100 99 98 97 96 95 93 89 76 75 74 73 72 71 70 67 65 63 61 60 54 53 52 51 
   8  10   1   0   0   0   0   0   0   0   0   0   0   0   0   0   1   0   0   0   1   0   0   0   0   0   0   4   0   0   0  14 101 100 97 96 73 70 64 59 58 51 48 47 40 33 
   9   0   0   1   0   0   0   0   0   0   0   0   0   0   0   0   0   0   0   0   0   0   8   0   0   0   0   0   0   6   0  16 101 95 92 76 73 69 66 61 60 58 56 55 51 49 46 41 
   3   0   0   7   0   0   0   0   9   0   8   0   0   0   0   0   0   0   0   0   0   9   0   0   0   0   0   5   0   0   0  14 100 92 73 69 67 66 62 59 57 51 47 46 42 41 
   4   0   0   0   0   0   0   0   0   0   0   0   0   0   0   0   0   1   0   0   0   0   0   0   0   0   4   6   0   0   0   9 100 97 95 72 62 56 52 46 24 
   6   8   0   0   0   0   0   5   6   0   0   5   0   0   0   0   0   7   0   0   0   0   0   0   0   1   0   0   0   0   0  17 101 100 97 96 94 93 89 87 76 74 73 70 67 61 58 47 39 
   7   0   0   0   0   0   0   0   6   8   0   0   6   0   0   0   4   0   0   0   0   0   7   0   0   0   0   0   0   0   0  10 101 96 73 71 67 61 53 49 44 41 
   4   0   0   0   0   0   0   0   0   0   8   0   6   0   0   0   0   0   1   0   0   0   0   0   0   0   0   0   0   0   0  15 99 96 95 94 92 91 89 81 73 72 67 62 61 53 41 
   5   0   0   0   0   0   0   0   0   0   0   0   0   0   0   0   0   0   0   0   0   0   4   4   0   0   0   0   0   0   0  11 99 95 73 72 69 67 66 60 55 41 40 
   9   3   0   0   0   0   0   0   0   0   0   4   0   0   0   0   0   0   0   0   0   0   0   0   2   0   0   0   0   0   0  15 99 97 96 95 92 91 85 73 72 71 70 69 63 50 40 
   2  10   0   0   0   0   0   8  10   0   0   0   0   0   2   0   0   0   0   6   0   0   0   0   0   0   4   0   0   0   0  16 100 96 93 91 84 83 80 75 72 71 68 67 65 61 59 53 
   1   6   0   0   7   0   0   0   5   7   7   0   0   0   0   0   0   0   0   0   0   0   0   0   0   0   0   0   0   0   0  20 101 99 96 94 92 91 90 89 88 87 86 85 84 82 71 69 68 67 64 57 
   5   0   0   0   0   4   0   0   0   0   0  10   0   0   0   0   0   0   5   0   0   0   0   0   0   0   0   0   2   0   0  19 100 98 97 96 93 92 91 90 89 83 82 74 71 70 69 68 66 65 61 
   5   0   0   0   6   0   0   0   0   0   0   0   0   0   8   0   0   0   0   0   0   0   0   0   0   0   0   0   6   0   0  10 99 92 91 73 70 69 67 66 65 40 
   4   0   0   0   0   0   0   0   0   6   0   0   0   0   0   0   0   0   0   8   0   0   0   0   0  10   0   0   0   0   0  14 97 95 94 93 88 83 80 76 73 71 67 60 59 53 
   9   5   0   0   0   0   0   0   0   0   0   0   0   0   0   0   5   0   0   0   0   0   0   0   0   0   0   0   0   0   0  15 99 96 95 92 91 89 88 86 81 74 72 68 67 57 53 
   2   4   8   0   0   0   0   0   0   0   0   0   0   0   0   0   0   0   0   7   0   0   0   0   0   0   0   0   0   0   0  13 98 94 92 91 86 85 84 70 69 66 62 61 49 
   4   0   0   0   0   0   0   0   0   0   0   0   0   0  10   4   0   0   0   0   0   0   0   0   0   0   0   0   2   8   0  12 101 98 97 96 90 88 86 75 67 60 55 53 
  10   0   0   0  10   0   0   0   0   0   0   0   0   3   6   0   0   0   0   0   0   0   0   0   0   0   0   0   0   0   3  13 101 99 97 89 87 86 85 75 74 71 69 62 50 
   7   0   0   8   0   0   0   0   0   0   0   0   0   0   0   0   0   4   8   0   0   0   0   0   0   0   5   0   0   0   0  18 99 98 94 92 89 87 86 85 84 83 82 81 80 73 72 69 68 61 
   1   0   0   0   7   0   0   0   0   0   0   0   0   0   8   0   0   0   0   0   6   0   0   0   7   0   0   0   0   0   0  13 99 98 96 94 93 92 86 83 81 67 61 59 53 
   4   0   0  10   0   8   0   0   8   0   0   0   0   0   0   5   0   0   0   0   0   0   8   0   0   0  10   0   0   0   0  11 96 95 93 91 84 72 70 68 65 59 58 
   8   0   0   0   0   0   0   0   0   0   0   0   0   0   0   0   0   0   0   0   0   7   0   0  10   0   0   0   0   0   0  10 92 91 90 71 69 67 66 65 61 49 
  10   0   0   0   0   0   0   0   9   0   0   0   0   0   0   0   0   0   0   0   0   0   3   0   0   0   0   0   0   0   0  10 99 96 95 93 88 82 75 71 59 49 
  10   0   8   4   0   0   0  10   0   0   0   9   0   0   0   0   0   0   0   0   0   0   0   0   0   0   6   0   0   0   0  13 100 98 95 89 87 86 85 83 75 71 70 63 61 
   1   0   0   9  10   0   0   0   0   0   0   0   0   0   0   5   0   0   0   0   0   0   0   0   6   0   0   0   0   0   0  13 97 95 94 93 92 89 86 85 77 76 73 72 70 
   9   0   0   0   0   8   0   0   0   0   0   0   0   0   4   0   0   0   0   0   0   0   0   0   0   0   8   0   0   0   0  10 100 95 89 88 87 83 74 69 65 62 
   7   0   0   0   0   0   0   0   0   0   0   0   0   5   0   0   5   7   6   0   0   6   0   0   0   0   0   0   0   0   5  13 94 91 88 85 84 83 82 81 80 77 73 72 68 
   3   0   0   0   0   0   0   0   0   6   0   0   0   4   0   0   0   0   0   8   0   0   0   0   0   0   0   0   0   0   0   9 95 92 83 82 80 71 69 65 60 
   3   6   0   0   0   4   0   0   3   0   0   0   0   0   0   0   0   0   3   0   0   0   0   0   0   0   0   0   0   0   0  12 94 93 89 87 86 84 83 82 81 80 68 61 
   1   0   0   0   0   0   5   0   0   0   0   0   0   0   0   0   0   0   0   0   0   0   0   0   0   0   0   0   0   0   9  10 97 93 90 83 79 77 74 70 68 65 
   4   0   0   0   0   0   0   0   7   6   0   0   0   0   2   0   0   0   0   0   0   0   0   0   0   0   0   0   0   0   5  10 96 94 91 90 83 80 79 68 65 61 
   4   0   0   0   0   0   0   0   0   0   0   8   0   0   0   0  10   0   6   0   6   0   0   0   0   0   0   0   0   0   0  11 100 96 95 90 84 82 81 79 70 69 68 
   6   0   0   4   0   0   0   0   0   0   0   0   0   0   6   0   0   0  10   0   0   0   0   0   0   0   8   5   0   0   0  10 95 94 91 88 82 79 77 75 70 68 
   9   0   0   0   8   0   0   0   0   0   0   0   0   0   0   0   0   0   0   0   0   5   0   0   6   0   0   0   0   0   0  10 99 96 94 91 87 85 84 83 79 61 
  10   0   0   0   0   0   0   0   0   0   0   0  10   5   0   0   0   0   0   0   0  10   0   0   2   0   0  10   0   0   0  11 96 94 90 89 87 84 83 82 79 78 71 
  10   8   0   6   0   7   0   0   0   0   0   0   0   0   0   0   0   0   0   0   0   0   0   0   0   7   0   0   0   4   4  11 98 95 91 90 88 84 82 81 79 77 68 
   8   0   0   0   0   0   0   0   4   0   0   0   6   0   0   0   0   7   0   0   9   0   0   3   0   0   0   0   0   0   0   9 91 88 86 82 81 80 79 78 77 
   6   0   9   0   0   0   0   0   0   0   0   0   0   0   0   5   0   0   0   0   0   0   0   0   0   0   5  10   0   0   0   7 89 83 81 80 77 72 68 
   3   0   6   0   7   0   0   0   0   0   0   0   6   0   0   0   0   0   0   0   0   0   0   7   0   0   0   0   0   0   0   8 94 93 84 82 80 79 78 77 
   1   0   4   0   0   4   0   0   5   4   0   0   0   0   0   0  10   0   0   0   9   0   0   0   0   0   0   8   0   0   0   7 91 87 86 85 80 78 77 
   8   0   0   0   0   0   0   0   0   0   6   0   0   0   0   6   6   5   0   0   0   0   0   0   0   0  10   0   0   0   5   7 90 88 83 82 79 78 77 
   5   6   0   0   6   5   0   0   0   0   0   0   0   0   0   0   0   6   0   0   0   0   0   0   0   0   0   0   0   5   0   4 82 79 69 66 
   3   0   8   0   0   0   0   0   0   0   0   4   0   0   0   0   0   0   0   0   0   0   0   0   0   0   0   0   0   0   0   6 86 84 83 82 81 79 
   1   0   7   0   0   0   0   0   0   0   0   0   0   0   0  10   0   0   0   0   6   0   0   0   0   0   0   0   0   0   0   5 91 85 83 82 68 
   8   0   5   0   0   0   0   0   0   0   0   0   0   0   0   0   0   0   0   7   0   0   0   0   0   3   0   0   0   0   0   5 93 85 80 78 77 
   9   0   0   0   2   0   0   0   8   0   0   5   0   0   0   0   0   0   0   0   0   0   0   0   0   0   0   0   0   0   0   4 93 79 77 70 
   8   0   0   0   0   0   0   0   0   0   0   0   0   0   0   0   6   7   0   0   0   0   0   0   0   0   0   0   0   0   7   4 98 83 77 71 
  10   0   0   0   0   0   0   0   0  10   0   0   0   0   0   0   4   0   0   0   0   0   0   0   0   8   0   0  10   7   0   4 89 87 85 78 
   3   7   0   0   0   0   0   0   0   0   0   0   0   0   0   0   0   0   0   0   0   0   8   6   0   0   0   0   0   0   0   3 84 81 68 
   1   0   0   0   0   0   0   0   0   0   0   0   0   0   0  10   0   0   0   0   0   0   0   0   0   0   0   0   0   0   0   3 88 78 77 
   1   0   0   0   0   7   0   0   0   0   0   0   0  10   0   0   0   0   0   0   0   0   0   6   0   0   3   0   0   0   0   3 90 82 80 
   1   6   0   0   0   0   0   0   0   0   0   0   0   0   0   3   0   0   0   0   0   8   3   0   0   0   8   0   0   0   0   3 84 82 77 
   4   0   0   0   0   0   0   0   6   3   0   0   0   0   0   5   0   0   0   0   0   0   0   0   0   0   8   0   0   0   0   3 83 81 80 
   5   0   0   0   0   0   0   0   0   0   0   0   0   0   5   6   0   0   0   0   0   0   0   0   5   0  10   0   0   0   0   2 86 85 
   5   0   0   0   0   0   0   0   0   0   0   0   0   0   0   4   0   8   0   0   0   0   0   0   0   0   0   0   0   0   7   2 87 78 
  10   0   0   0   0   0   0   0   0   0   0   0   0   0   0   0   0   0   0   0   0   0   0   0   0   0   0   0   0   0   0   2 79 77 
  10   0   7   0   0   0   0   0   0   0   5   0   0   0   0  10   0   0   0   0   0   0   0   0   0   0   0   7   0   0   0   1 78 
   3   0   0   0   0   0   0   0   0   0   0   0   0   0   0   0   0   0   0   0   0   0   7   9   0   9   5   0   0   0   0   1 77 
   9   0   0   0   0   0   0   0   0   0   0   0   0   0   0   0   5   0   0   0   4   0   0   0   0   0   0   0   0   0   0   1 80 
   9   0   0   0   0   0   0   0   0   0   8   0   0   0   0   0   8   0   0   0   8   0   7   0   0   0   0   0   0   0   0   1 81 
   8   0   0   0   0   0   0   0   0   0   0   0   0   0   0   0  10   0   0   0   0   0   0   0   0   0   6   0   0   0   0   1 79 
   6   0   0   7   0   0   0   0   0   0   0   0   0   0   3   0   0   9   0   0   0   0   0   0   0   0   0   0   0   0   0   1 90 
   6   0   5   0   0   0   0   6   0   0   0   4   0   0   0   0   0   0   0   0   6   0   0   0   0   0   0   0   0   0   0   1 84 
   6   0   0   0   0   0   0   0   0   0   0   0   0   0   0   0   0   0   0   0   0   0   0   0   0   0   0   4   0   0   0   1 92 
   4   0   0   0   0   0   0   0   0   0   0   0   0   0   0   0   9   0   0   0   0   0   0   0   0   4   0   0   0   0  10   1 81 
   4   0   0   0   0   0   0   0   5   0   0   0   5   0   0   0   4   4   0   0   0   0   0   0   0   0   7   0   0   0   0   1 102
   5   0   6   0   5   0   0   0   0   0   0   0   0   8   0   0   0   0   0   0   8   0   7   0   0   0   0   5   0   0   0   1 102
   2   0   8   0   0   4   2   0   0   5   0   0   0   0   6   0   0   0   0   0   0   0   0   0   0   0   0   0   0   6   0   1 102
   4   0   0   0   0   0   0   0   0   0   0   0   0   0  10   0   0   0   8   0   0   0   0   0   0   0   0   0   8   7   0   1 102
   1   0   0   0   0   0   6   0   0   5   0   0   0   0   0   0   0   0   0   0   0   2   6   0   0   0   0   0   0   0   0   1 102
   3   0   0   0   5  10   0   0   0   8   0   6   0   6   0   0   0   0   0   0   0   6   5   0   0   0   0   0   0   0   0   1 102
   2   8   0   0   0   0   0   0   0   0   0   0   0   0   0   0   0   0   0   0   0   0   0   0   0   0   0   0   0   0   0   1 102
   6   0   0   0   0   0   0   0   0   0   0   0   8   0   0   0   0   0   4   0   0   5   0   4   0   0   0   0   8   0   0   1 102
   4   0   2   0   0   0   0   0   0   0   0   0   0   0   0   9   0   0   0   0   0   0   8   0   0   0   0   0   0   4   0   1 102
  10   0   0   0   0   0   0   0   0   0   0   0   0   0   0   0   0   0   0   0   0   0   0   0   0   0   3   0   0   0   0   1 102
   9   0   9   0   0   0   0   0   0   0   0   0   0   0   0   6   0   0   0   0   0   0   0   0   0   0   7   0   0   0   0   1 102
   7   0   3   0   0   8   4   0   0   4   0   0   0  10   0   0   0   0   0   0   0   0   0  10   0   0   0   4   0   0   0   1 102
   7   2   0   4   0   0   0   9   0   0   0   5   0   0   0   0   0   0   0   0   0   0   0   0   0   0   0   0   0   0   0   1 102
   4   0   0   0   0   0   0   5   0   0   0   0   0   0   0   0   0   0   0   0   0   0   0   0   0   0   0   0   0   0   0   1 102
   6   6   0   0   4   0   0   0   0   0   0   0   0   0   0   5   3   8   0   7   0   7   0   7   0   0   5   0   0   7   0   1 102
   6   0   0   0   0   0   0   5  10   0   0   9   0   0   0   5   0   0  10   0   0   0   0   0   0   0   7   0   0   0   0   1 102
   6   0   0   0   0   0  10   0   0   0   0   0   0   0   6   5   0   0   6   6   0   0   4   0   0   0   6   0   0   0   0   1 102
  10   0   0   0   0   0   0   0   0   0   4   5   0   0   0   9   0   0   0   0   0   0   0   0   0   0   6   0   0   0   0   1 102
   9   0   0   0   0   0   0   0   0   0   7   9   0   0   0   0   0   8   2   7   0   6   0   0   8   0   0   0   0   0   0   1 102
   9   0   0   0   7   0   0   0   0   0   0   0   0   0   8   0   0   7   0   3   0   0   0   0   0   0   3   0   0   0   0   1 102
   2   0   0   0   0   0   0   0   0   0   0   0   6   6   0   0   0   0   0   0   0   0   5   0   0   0   0   0   0   0   0   1 102
   7   9   0   0   0   0   0   0   2   7   0   0   0   0   0   0   0   2   0   0   0   0  10   0   0   0   5   0   0   0   0   1 102
   8   0   0   0   8   0   9   0   0   0   0   0   6   0   0   0   0   0   0   0   0   0   0   6   0   0   0   0   0   0   0   1 102
   1   0   0   0   0   0   0   0   0   0   5   0   0   0   0   0   0   0   9   0   0   0   0   0   8   0   0   0   0   0   0   1 102
   8   0   0   0   0   8   0   0   4   0   0   0   0   0   0   0   0   0   6   0   3   0   0   0   0   0   0   0   0  10   0   1 102
   0   0   0   0   0   0   0   0   0   0   0   0   0   0   0   0   0   0   0   0   0   0   0   0   0   0   0   0   0   0   0   0 
